Version identifier: 20.1.0.0 | 2020-11-10 | 9bedb6d68
CPXPARAM_Threads                                 1
CPXPARAM_TimeLimit                               7200
CPXPARAM_MIP_Tolerances_MIPGap                   0
Generic callback                                 0x60
1 of 1 MIP starts provided solutions.
MIP start 'm1' defined initial solution with objective 2231.7679.
Tried aggregator 1 time.
Reduced MIP has 1 rows, 1001 columns, and 1000 nonzeros.
Reduced MIP has 1000 binaries, 0 generals, 0 SOSs, and 0 indicators.
Presolve time = 0.00 sec. (0.30 ticks)
Probing time = 0.00 sec. (0.11 ticks)
Tried aggregator 1 time.
Reduced MIP has 1 rows, 1001 columns, and 1000 nonzeros.
Reduced MIP has 1000 binaries, 0 generals, 0 SOSs, and 0 indicators.
Presolve time = 0.00 sec. (0.31 ticks)
Probing time = 0.00 sec. (0.11 ticks)
MIP emphasis: balance optimality and feasibility.
MIP search method: dynamic search.
Parallel mode: none, using 1 thread.
Root relaxation solution time = 0.00 sec. (0.21 ticks)

        Nodes                                         Cuts/
   Node  Left     Objective  IInf  Best Integer    Best Bound    ItCnt     Gap

*     0+    0                         2231.7679     5432.0000           143.39%
      0     0     3092.2649     2     2231.7679     5432.0000        0  143.39%
      0     0     2633.0310     3     2231.7679 UserPurge2: 1        9   17.98%
      0     0     2557.9743     5     2231.7679 UserPurge2: 1       16   14.62%
      0     0     2494.6035     6     2231.7679 UserPurge2: 1       34   11.78%
      0     0     2473.6814     8     2231.7679 UserPurge2: 1       59   10.84%
      0     0     2451.2378    10     2231.7679 UserPurge2: 1       93    9.83%
      0     0     2433.2565    10     2231.7679 UserPurge2: 1      112    9.03%
      0     0     2394.4542     8     2231.7679 UserPurge2: 1      144    7.29%
      0     0     2382.8877     7     2231.7679 UserPurge2: 1      161    6.77%
      0     0     2381.5532     9     2231.7679 UserPurge1: 1      164    6.71%
      0     0     2367.5872     7     2231.7679 UserPurge2: 1      187    6.09%
      0     0     2356.4532     8     2231.7679 UserPurge2: 1      200    5.59%
      0     0     2351.7210     9     2231.7679 UserPurge2: 1      208    5.37%
      0     0     2345.6618     7     2231.7679 UserPurge2: 1      227    5.10%
      0     0     2337.8522     7     2231.7679 UserPurge2: 1      237    4.75%
      0     0     2334.5598     9     2231.7679 UserPurge2: 1      247    4.61%
      0     0     2332.6899     8     2231.7679 UserPurge2: 1      256    4.52%
      0     0     2330.5525     8     2231.7679 UserPurge2: 1      266    4.43%
      0     0     2327.7682     9     2231.7679 UserPurge2: 1      278    4.30%
      0     0     2322.7214     9     2231.7679 UserPurge2: 1      294    4.08%
      0     0     2320.2868    10     2231.7679 UserPurge2: 1      307    3.97%
      0     0     2314.8999    10     2231.7679 UserPurge2: 1      330    3.72%
      0     0     2311.4220    10     2231.7679 UserPurge2: 1      345    3.57%
      0     0     2310.4291    11     2231.7679 UserPurge2: 1      353    3.52%
      0     0     2305.6843    12     2231.7679 UserPurge2: 1      380    3.31%
      0     0     2295.7994    10     2231.7679 UserPurge2: 1      399    2.87%
      0     0     2294.0848    11     2231.7679 UserPurge2: 1      409    2.79%
      0     0     2293.9921    12     2231.7679 UserPurge2: 1      414    2.79%
      0     0     2291.7084    12     2231.7679 UserPurge2: 1      435    2.69%
      0     0     2291.0123    12     2231.7679 UserPurge2: 1      446    2.65%
      0     0     2288.9567    11     2231.7679 UserPurge2: 1      465    2.56%
      0     0     2287.8661    11     2231.7679 UserPurge2: 1      471    2.51%
      0     0     2287.2181    12     2231.7679 UserPurge2: 1      478    2.48%
      0     0     2286.9630    13     2231.7679 UserPurge2: 1      486    2.47%
      0     0     2286.5078    13     2231.7679 UserPurge2: 1      499    2.45%
      0     0     2286.0122    14     2231.7679 UserPurge2: 1      511    2.43%
      0     0     2284.8209    14     2231.7679 UserPurge2: 1      540    2.38%
      0     0     2283.0352    13     2231.7679 UserPurge2: 1      569    2.30%
      0     0     2279.7387    12     2231.7679 UserPurge2: 1      598    2.15%
      0     0     2279.1194    11     2231.7679 UserPurge2: 1      613    2.12%
      0     0     2278.5961    12     2231.7679 UserPurge2: 1      625    2.10%
      0     0     2277.9596    12     2231.7679 UserPurge2: 1      639    2.07%
      0     0     2277.4296    12     2231.7679 UserPurge2: 1      645    2.05%
      0     0     2276.6470    13     2231.7679 UserPurge2: 1      658    2.01%
      0     0     2276.4147    14     2231.7679 UserPurge2: 1      665    2.00%
      0     0     2274.6626    14     2231.7679 UserPurge2: 1      684    1.92%
      0     0     2272.7455    13     2231.7679 UserPurge2: 1      709    1.84%
      0     0     2271.9834    14     2231.7679 UserPurge2: 1      718    1.80%
      0     0     2270.2961    13     2231.7679 UserPurge2: 1      737    1.73%
      0     0     2269.3509    12     2231.7679 UserPurge2: 1      754    1.68%
      0     0     2268.9285    12     2231.7679 UserPurge2: 1      766    1.67%
      0     0     2268.5126    12     2231.7679 UserPurge2: 1      775    1.65%
      0     0     2268.2714    13     2231.7679 UserPurge2: 1      787    1.64%
      0     0     2267.5982    13     2231.7679 UserPurge2: 1      809    1.61%
      0     0     2266.6925    12     2231.7679 UserPurge2: 1      822    1.56%
      0     0     2266.4501    13     2231.7679 UserPurge2: 1      836    1.55%
*     0+    0                         2235.8995     2266.4501             1.37%
      0     0     2266.1597    14     2235.8995 UserPurge2: 1      849    1.35%
      0     0     2265.8101    14     2235.8995 UserPurge2: 1      862    1.34%
      0     0     2264.6842    12     2235.8995 UserPurge2: 1      888    1.29%
      0     0     2264.5233    13     2235.8995 UserPurge2: 1      891    1.28%
      0     0     2264.2668    14     2235.8995 UserPurge2: 1      898    1.27%
      0     0     2264.0462    14     2235.8995 UserPurge2: 1      912    1.26%
      0     0     2263.9547    15     2235.8995 UserPurge2: 1      918    1.25%
      0     0     2263.4565    15     2235.8995 UserPurge2: 1      936    1.23%
      0     0     2262.9813    16     2235.8995 UserPurge2: 1      953    1.21%
      0     0     2262.6811    14     2235.8995 UserPurge2: 1      962    1.20%
      0     0     2262.5949    15     2235.8995 UserPurge2: 1      969    1.19%
      0     0     2262.5015    16     2235.8995 UserPurge2: 1      981    1.19%
      0     0     2262.0097    15     2235.8995 UserPurge2: 1      998    1.17%
      0     2     2262.0097    15     2235.8995     2261.9913      998    1.17%
Elapsed time = 28.03 sec. (308.41 ticks, tree = 0.01 MB, solutions = 2)
*     1     1      integral     0     2240.5122     2261.9913    11155    0.96%

User cuts applied:  794

Root node processing (before b&c):
  Real time             =   28.03 sec. (310.68 ticks)
Sequential b&c:
  Real time             =   57.51 sec. (6312.36 ticks)
                          ------------
Total (root+branch&cut) =   85.54 sec. (6623.03 ticks)
@Parameters: 
is_S_cut                                true
is_add_all_yinF                         true
is_start_value                          true
is_usercut                              true
is_visualization                        false
uc_only_rootnode                        false

data                                    Qi
fn                                      data/Qi/instance_1000_1000.csv
mode                                    NewSubmodular
solver                                  cplex

p                                       5
r                                       10

EPS                                     1.0e-06
EPS_vio                                 1.0e-04
beta                                    0.10
gap                                     0.00
nodelimit                               Inf
timelimit                               7200.00


@PrintInfos
ItCnt: 11406
Current gap: 0.00 %
Termination Status: OPTIMAL
Primal Status: FEASIBLE_POINT
Solve Time: 85.54 sec
Objective Value: 2240.512171
Number of Nodes:      3

CutInfo: [phase] num / time (sec) 
ZLP             [phase1]     0 / 0.00 [rLC]     0 / 0.00 [rUC]     0 / 0.00 [sLC]     0 / 0.00 [sUC]     0 / 0.00 
OldSubmodular   [phase1]     0 / 0.00 [rLC]     0 / 0.00 [rUC]     0 / 0.00 [sLC]     0 / 0.00 [sUC]     0 / 0.00 
NewSubmodular   [phase1]     0 / 0.00 [rLC]    68 / 17.68 [rUC]   115 / 8.04 [sLC]     0 / 2.27 [sUC]   770 / 50.42 
PMP             [phase1]     0 / 0.00 [rLC]     5 / 13.45 [rUC]     0 / 0.00 [sLC]     1 / 2.25 [sUC]     0 / 0.00 
Separation Round: [phase1] 0  [rLC] 49  [rUC] 70  [sLC] 1  [sUC] 317
Root Best Bound 2240.512171
Root Best Integer: 2240.512171
Best Bound: 2240.512171
Best Integer: 2240.512171

